p edges 69 859
e 1 5
e 1 8
e 1 15
e 1 16
e 1 17
e 1 18
e 1 20
e 1 21
e 1 22
e 1 24
e 1 25
e 1 27
e 1 29
e 1 32
e 1 34
e 1 37
e 1 38
e 1 41
e 1 42
e 1 43
e 1 45
e 1 49
e 1 55
e 1 57
e 1 58
e 1 62
e 1 63
e 1 65
e 1 67
e 1 68
e 2 4
e 2 5
e 2 9
e 2 11
e 2 14
e 2 18
e 2 22
e 2 23
e 2 24
e 2 26
e 2 28
e 2 29
e 2 31
e 2 33
e 2 36
e 2 42
e 2 45
e 2 47
e 2 49
e 2 51
e 2 52
e 2 53
e 2 55
e 2 58
e 2 61
e 2 63
e 3 8
e 3 17
e 3 20
e 3 35
e 3 37
e 3 50
e 3 57
e 3 59
e 3 60
e 3 62
e 3 64
e 3 67
e 3 68
e 3 69
e 4 5
e 4 11
e 4 14
e 4 18
e 4 22
e 4 23
e 4 28
e 4 36
e 4 40
e 4 42
e 4 45
e 4 49
e 4 51
e 4 53
e 4 55
e 4 58
e 4 61
e 4 63
e 5 11
e 5 14
e 5 18
e 5 21
e 5 22
e 5 23
e 5 24
e 5 25
e 5 27
e 5 28
e 5 29
e 5 31
e 5 34
e 5 36
e 5 38
e 5 40
e 5 41
e 5 42
e 5 43
e 5 45
e 5 49
e 5 51
e 5 53
e 5 55
e 5 58
e 5 61
e 5 63
e 5 65
e 6 7
e 6 8
e 6 9
e 6 10
e 6 11
e 6 12
e 6 13
e 6 19
e 6 20
e 6 23
e 6 26
e 6 30
e 6 33
e 6 35
e 6 36
e 6 39
e 6 40
e 6 44
e 6 46
e 6 47
e 6 48
e 6 51
e 6 52
e 6 54
e 6 56
e 6 59
e 6 60
e 6 64
e 6 66
e 7 8
e 7 9
e 7 10
e 7 12
e 7 13
e 7 19
e 7 20
e 7 26
e 7 30
e 7 33
e 7 35
e 7 39
e 7 44
e 7 46
e 7 48
e 7 54
e 7 56
e 7 59
e 7 60
e 7 64
e 7 66
e 8 13
e 8 17
e 8 20
e 8 32
e 8 35
e 8 37
e 8 39
e 8 50
e 8 54
e 8 56
e 8 57
e 8 59
e 8 60
e 8 62
e 8 64
e 8 67
e 8 68
e 8 69
e 9 10
e 9 11
e 9 12
e 9 13
e 9 19
e 9 23
e 9 24
e 9 26
e 9 28
e 9 29
e 9 30
e 9 31
e 9 33
e 9 36
e 9 39
e 9 40
e 9 44
e 9 46
e 9 47
e 9 48
e 9 51
e 9 52
e 9 54
e 9 56
e 9 64
e 9 66
e 10 12
e 10 13
e 10 19
e 10 23
e 10 26
e 10 30
e 10 33
e 10 39
e 10 44
e 10 46
e 10 47
e 10 48
e 10 52
e 10 54
e 10 56
e 10 64
e 10 66
e 11 12
e 11 14
e 11 18
e 11 22
e 11 23
e 11 24
e 11 26
e 11 28
e 11 29
e 11 31
e 11 33
e 11 36
e 11 40
e 11 42
e 11 45
e 11 47
e 11 48
e 11 49
e 11 51
e 11 52
e 11 53
e 11 58
e 11 61
e 11 63
e 12 13
e 12 19
e 12 23
e 12 26
e 12 30
e 12 33
e 12 36
e 12 39
e 12 40
e 12 44
e 12 46
e 12 47
e 12 48
e 12 51
e 12 52
e 12 54
e 12 56
e 12 64
e 12 66
e 13 19
e 13 20
e 13 26
e 13 30
e 13 33
e 13 35
e 13 39
e 13 44
e 13 46
e 13 48
e 13 54
e 13 56
e 13 59
e 13 60
e 13 64
e 13 66
e 14 18
e 14 22
e 14 23
e 14 26
e 14 28
e 14 36
e 14 40
e 14 42
e 14 45
e 14 47
e 14 49
e 14 51
e 14 52
e 14 53
e 14 55
e 14 58
e 14 61
e 14 63
e 15 16
e 15 21
e 15 25
e 15 27
e 15 32
e 15 34
e 15 38
e 15 41
e 15 43
e 15 62
e 15 65
e 15 67
e 16 21
e 16 25
e 16 27
e 16 32
e 16 34
e 16 38
e 16 41
e 16 43
e 16 62
e 16 65
e 16 67
e 16 68
e 17 20
e 17 32
e 17 35
e 17 37
e 17 50
e 17 57
e 17 59
e 17 60
e 17 62
e 17 64
e 17 67
e 17 68
e 17 69
e 18 21
e 18 22
e 18 23
e 18 24
e 18 25
e 18 27
e 18 28
e 18 29
e 18 31
e 18 34
e 18 36
e 18 38
e 18 40
e 18 41
e 18 42
e 18 43
e 18 45
e 18 49
e 18 51
e 18 53
e 18 55
e 18 58
e 18 61
e 18 63
e 18 65
e 19 23
e 19 26
e 19 30
e 19 33
e 19 39
e 19 44
e 19 46
e 19 47
e 19 48
e 19 52
e 19 54
e 19 56
e 19 64
e 19 66
e 20 32
e 20 35
e 20 37
e 20 39
e 20 50
e 20 54
e 20 56
e 20 57
e 20 59
e 20 60
e 20 62
e 20 64
e 20 67
e 20 68
e 20 69
e 21 25
e 21 27
e 21 32
e 21 34
e 21 38
e 21 41
e 21 43
e 21 45
e 21 55
e 21 62
e 21 63
e 21 65
e 22 23
e 22 24
e 22 25
e 22 27
e 22 28
e 22 29
e 22 31
e 22 34
e 22 36
e 22 38
e 22 40
e 22 42
e 22 43
e 22 45
e 22 49
e 22 51
e 22 53
e 22 55
e 22 58
e 22 61
e 22 63
e 22 65
e 23 24
e 23 26
e 23 28
e 23 29
e 23 30
e 23 31
e 23 33
e 23 36
e 23 39
e 23 40
e 23 42
e 23 44
e 23 45
e 23 46
e 23 47
e 23 48
e 23 49
e 23 51
e 23 52
e 23 53
e 23 54
e 23 56
e 23 61
e 23 63
e 23 66
e 24 25
e 24 26
e 24 27
e 24 28
e 24 29
e 24 31
e 24 33
e 24 34
e 24 36
e 24 38
e 24 40
e 24 42
e 24 43
e 24 45
e 24 47
e 24 49
e 24 51
e 24 52
e 24 53
e 24 55
e 24 58
e 24 61
e 24 63
e 24 65
e 25 27
e 25 29
e 25 31
e 25 32
e 25 34
e 25 38
e 25 41
e 25 42
e 25 43
e 25 45
e 25 49
e 25 53
e 25 55
e 25 58
e 25 61
e 25 62
e 25 63
e 25 65
e 25 67
e 25 68
e 26 28
e 26 29
e 26 30
e 26 31
e 26 33
e 26 36
e 26 39
e 26 40
e 26 42
e 26 44
e 26 45
e 26 46
e 26 47
e 26 48
e 26 49
e 26 51
e 26 52
e 26 54
e 26 56
e 26 61
e 26 64
e 26 66
e 27 29
e 27 31
e 27 32
e 27 34
e 27 38
e 27 41
e 27 42
e 27 43
e 27 45
e 27 49
e 27 53
e 27 55
e 27 58
e 27 61
e 27 62
e 27 63
e 27 65
e 27 67
e 27 68
e 28 29
e 28 31
e 28 33
e 28 36
e 28 40
e 28 42
e 28 45
e 28 47
e 28 49
e 28 51
e 28 52
e 28 53
e 28 55
e 28 58
e 28 61
e 28 63
e 29 31
e 29 33
e 29 34
e 29 36
e 29 38
e 29 40
e 29 42
e 29 43
e 29 45
e 29 47
e 29 49
e 29 51
e 29 52
e 29 53
e 29 55
e 29 58
e 29 61
e 29 63
e 29 65
e 30 33
e 30 39
e 30 44
e 30 46
e 30 47
e 30 48
e 30 51
e 30 52
e 30 54
e 30 56
e 30 64
e 30 66
e 31 33
e 31 34
e 31 36
e 31 38
e 31 40
e 31 42
e 31 43
e 31 45
e 31 47
e 31 49
e 31 51
e 31 52
e 31 53
e 31 55
e 31 58
e 31 61
e 31 63
e 31 65
e 32 34
e 32 37
e 32 38
e 32 41
e 32 43
e 32 57
e 32 62
e 32 65
e 32 67
e 32 68
e 33 36
e 33 39
e 33 40
e 33 44
e 33 46
e 33 47
e 33 48
e 33 49
e 33 51
e 33 52
e 33 54
e 33 56
e 33 64
e 33 66
e 34 38
e 34 41
e 34 42
e 34 43
e 34 45
e 34 49
e 34 53
e 34 55
e 34 58
e 34 61
e 34 63
e 34 65
e 35 37
e 35 39
e 35 50
e 35 54
e 35 56
e 35 57
e 35 59
e 35 60
e 35 62
e 35 64
e 35 67
e 35 68
e 35 69
e 36 40
e 36 42
e 36 45
e 36 47
e 36 48
e 36 49
e 36 51
e 36 52
e 36 53
e 36 58
e 36 61
e 37 39
e 37 50
e 37 54
e 37 57
e 37 59
e 37 60
e 37 62
e 37 64
e 37 67
e 37 68
e 37 69
e 38 41
e 38 42
e 38 43
e 38 45
e 38 49
e 38 53
e 38 55
e 38 58
e 38 61
e 38 62
e 38 63
e 38 65
e 39 44
e 39 46
e 39 47
e 39 48
e 39 51
e 39 52
e 39 54
e 39 56
e 39 57
e 39 59
e 39 60
e 39 64
e 39 66
e 40 42
e 40 45
e 40 47
e 40 48
e 40 49
e 40 51
e 40 52
e 40 53
e 40 55
e 40 58
e 40 61
e 40 63
e 41 43
e 41 45
e 41 55
e 41 62
e 41 63
e 41 65
e 41 67
e 41 68
e 42 43
e 42 45
e 42 47
e 42 49
e 42 51
e 42 52
e 42 53
e 42 55
e 42 58
e 42 61
e 42 63
e 42 65
e 43 45
e 43 49
e 43 53
e 43 55
e 43 58
e 43 61
e 43 62
e 43 63
e 43 65
e 43 67
e 43 68
e 44 46
e 44 47
e 44 48
e 44 51
e 44 52
e 44 54
e 44 56
e 44 64
e 44 66
e 45 47
e 45 49
e 45 51
e 45 52
e 45 53
e 45 55
e 45 58
e 45 61
e 45 63
e 45 65
e 46 47
e 46 48
e 46 52
e 46 54
e 46 56
e 46 64
e 46 66
e 47 48
e 47 49
e 47 51
e 47 52
e 47 54
e 47 56
e 47 61
e 47 66
e 48 51
e 48 52
e 48 54
e 48 56
e 48 64
e 48 66
e 49 51
e 49 52
e 49 53
e 49 55
e 49 58
e 49 61
e 49 63
e 49 65
e 50 57
e 50 59
e 50 60
e 50 62
e 50 64
e 50 67
e 50 68
e 50 69
e 51 52
e 51 53
e 51 54
e 51 56
e 51 58
e 51 61
e 52 54
e 52 56
e 52 61
e 52 66
e 53 55
e 53 58
e 53 61
e 53 63
e 54 56
e 54 57
e 54 59
e 54 60
e 54 64
e 54 66
e 55 58
e 55 61
e 55 63
e 55 65
e 56 59
e 56 60
e 56 64
e 56 66
e 57 59
e 57 60
e 57 62
e 57 64
e 57 67
e 57 68
e 57 69
e 58 61
e 58 63
e 58 65
e 59 60
e 59 62
e 59 64
e 59 67
e 59 68
e 59 69
e 60 64
e 60 68
e 60 69
e 61 63
e 61 65
e 62 65
e 62 67
e 62 68
e 62 69
e 63 65
e 64 66
e 64 68
e 65 67
e 67 68
e 67 69
e 68 69
w 1 70
w 2 204
w 3 101
w 4 449
w 5 6
w 6 155
w 7 110
w 8 23
w 9 7
w 10 10
w 11 52
w 12 34
w 13 20
w 14 41
w 15 365
w 16 122
w 17 180
w 18 1
w 19 91
w 20 39
w 21 70
w 22 203
w 23 3
w 24 42
w 25 44
w 26 9
w 27 64
w 28 212
w 29 48
w 30 92
w 31 51
w 32 192
w 33 4
w 34 185
w 35 39
w 36 208
w 37 282
w 38 64
w 39 172
w 40 195
w 41 199
w 42 3
w 43 63
w 44 10
w 45 6
w 46 192
w 47 131
w 48 258
w 49 1
w 50 141
w 51 95
w 52 293
w 53 92
w 54 93
w 55 61
w 56 73
w 57 141
w 58 38
w 59 77
w 60 141
w 61 43
w 62 70
w 63 38
w 64 52
w 65 236
w 66 103
w 67 70
w 68 101
w 69 294
n 1 x3099
n 2 x3539
n 3 x3697
n 4 x4094
n 5 x4653
n 6 x7183
n 7 x7426
n 8 x7758
n 9 x8432
n 10 x8578
n 11 x8880
n 12 x9308
n 13 x9544
n 14 x11972
n 15 x14774
n 16 x15635
n 17 x16596
n 18 x17193
n 19 x19025
n 20 x19141
n 21 x19819
n 22 x20028
n 23 x23445
n 24 x23479
n 25 x23940
n 26 x25057
n 27 x25970
n 28 x26048
n 29 x26730
n 30 x28542
n 31 x28560
n 32 x28607
n 33 x28885
n 34 x30291
n 35 x30830
n 36 x31328
n 37 x32638
n 38 x33053
n 39 x33362
n 40 x33774
n 41 x34199
n 42 x34845
n 43 x34882
n 44 x35329
n 45 x35695
n 46 x35724
n 47 x40956
n 48 x41277
n 49 x42021
n 50 x42335
n 51 x42620
n 52 x42966
n 53 x44151
n 54 x44523
n 55 x46045
n 56 x49089
n 57 x49221
n 58 x51150
n 59 x53538
n 60 x58857
n 61 x59763
n 62 x60278
n 63 x60311
n 64 x62701
n 65 x62755
n 66 x63306
n 67 x63903
n 68 x64397
n 69 x64941
o 1 3099
o 2 3539
o 3 3697
o 4 4094
o 5 4653
o 6 7183
o 7 7426
o 8 7758
o 9 8432
o 10 8578
o 11 8880
o 12 9308
o 13 9544
o 14 11972
o 15 14774
o 16 15635
o 17 16596
o 18 17193
o 19 19025
o 20 19141
o 21 19819
o 22 20028
o 23 23445
o 24 23479
o 25 23940
o 26 25057
o 27 25970
o 28 26048
o 29 26730
o 30 28542
o 31 28560
o 32 28607
o 33 28885
o 34 30291
o 35 30830
o 36 31328
o 37 32638
o 38 33053
o 39 33362
o 40 33774
o 41 34199
o 42 34845
o 43 34882
o 44 35329
o 45 35695
o 46 35724
o 47 40956
o 48 41277
o 49 42021
o 50 42335
o 51 42620
o 52 42966
o 53 44151
o 54 44523
o 55 46045
o 56 49089
o 57 49221
o 58 51150
o 59 53538
o 60 58857
o 61 59763
o 62 60278
o 63 60311
o 64 62701
o 65 62755
o 66 63306
o 67 63903
o 68 64397
o 69 64941
